c User generated cnf file
p cnf 14 20
12 9 -4 0 
14 -6 3 0 
11 12 -2 0 
-10 12 12 0 
-11 5 5 0 
-12 11 1 0 
6 -1 13 0 
-6 1 14 0 
8 13 -5 0 
5 14 -10 0 
7 -9 10 0 
13 -7 2 0 
10 -4 10 0 
5 1 -10 0 
-12 12 5 0 
5 13 -7 0 
5 2 -2 0 
-5 1 11 0 
-2 9 12 0 
-12 3 2 0 
